c SAT Generator for power-law distributed variable frequencies
c -g u -v 20 -c 91 -k 3 -p 2.750000 -b 3.200000 -f /home/schmidt/Devel/ni-kop-sat/data/ensemble/ruf20-91/ruf20-91-412 -u 1 -U 1 -s 3200795774
p cnf 20 91
11 17 20 0
5 13 -15 0
-4 -15 20 0
-9 11 -17 0
7 10 -11 0
-2 7 -20 0
8 -16 -19 0
1 -15 20 0
2 -7 12 0
6 8 -12 0
6 -7 17 0
1 -9 -10 0
-2 -6 12 0
7 -9 -16 0
-4 -16 -19 0
-8 -15 18 0
-5 11 13 0
2 17 18 0
8 11 -18 0
4 -6 11 0
-2 12 -15 0
1 8 14 0
-5 -6 20 0
-8 11 -20 0
-1 12 -17 0
1 6 9 0
-1 -5 -19 0
14 17 19 0
-7 -13 14 0
-4 -9 -19 0
4 12 -16 0
1 -3 -17 0
12 16 -18 0
-1 6 -11 0
-4 19 -20 0
1 7 -10 0
-5 -9 10 0
9 -10 -20 0
-1 5 -7 0
3 6 10 0
2 15 -18 0
2 -15 20 0
8 9 14 0
7 8 17 0
11 12 18 0
2 3 4 0
-1 8 14 0
5 9 20 0
-2 -4 16 0
11 -13 -18 0
6 14 17 0
11 15 -20 0
-8 13 -20 0
-16 18 -19 0
4 -5 18 0
-1 -7 -13 0
-1 -11 -19 0
-2 -7 18 0
6 9 17 0
-4 8 14 0
-1 -5 -7 0
3 -7 -17 0
3 5 -16 0
3 5 -18 0
-9 11 14 0
-2 6 12 0
-2 13 -19 0
4 5 11 0
2 -5 -12 0
-4 16 -19 0
-5 7 20 0
-4 16 -18 0
9 11 15 0
6 -10 17 0
-3 -15 -19 0
3 -13 -19 0
-7 11 14 0
-2 -12 -16 0
-3 4 18 0
-6 -12 13 0
4 -15 18 0
-1 -16 -17 0
-10 11 -20 0
-6 -14 -15 0
-14 -15 17 0
-1 2 -7 0
13 17 19 0
10 -12 -16 0
4 -13 20 0
-4 5 -19 0
-1 -3 -16 0
